p cnf 12 26
-12 11 -7 0
12 -9 7 0
12 -9 -5 0
-12 -9 -2 0
-12 7 -6 0
12 -7 -2 0
-12 -5 -2 0
-12 2 -1 0
-11 10 8 0
-11 -10 -5 0
-11 -9 -7 0
-11 8 -4 0
11 -7 6 0
-11 5 -1 0
10 8 -2 0
-9 6 -2 0
9 -5 -1 0
-8 -7 -4 0
-8 -7 -3 0
-8 6 4 0
-8 4 1 0
7 6 -3 0
7 -5 3 0
7 -4 -3 0
-6 5 3 0
-5 4 -1 0
